%% Error checking: It should generate a decent error/assert!
%% 2021/Feb/26: It works! Detects the error that the number of compound replicates should be at least 1

%% Plate dimentions: (this is a 384-well plate)
num_rows = 4; %% height
num_cols = 6; %% width

vertical_cell_lines	 = 1;
horizontal_cell_lines = 1;
allow_empty_wells = true; %%
size_empty_edge = 1;

% New and used!
concentrations_on_different_rows = false;
concentrations_on_different_columns = false;

% New and unused! (Restriction: replicates_on_different_plates /\ replicates_on_same_plate == false)
replicates_on_different_plates = true;
replicates_on_same_plate = false;


%%% Compounds %%%
compounds = 1; %% number of drugs/compounds
compound_replicates	 = [0];
compound_concentrations	 = [1];  %

compound_names = ["a"];

compound_concentration_names = [|"b"|]; %

compound_concentration_indicators = ["" | i in 1..max(compound_concentrations)]; %% Used for drawing plate in latex

%%% Combinations %%%
combinations = 0; %
combination_concentrations = 0; %
combination_names = []; %
combination_concentration_names = []; %

%%% Controls %%%
num_controls = 1;
control_concentrations = [1];

control_names = ["c"];

control_replicates = [0];
  
control_concentration_names = [|""|];
 
